&CONTROL
  calculation = 'scf'
  etot_conv_thr =   6.0000000000d-05
  forc_conv_thr =   1.0000000000d-04
  pseudo_dir = './pseudo/'
  outdir = './work/'
  disk_io = 'none'
  tprnfor = .true.
  tstress = .true.
  verbosity = 'high'
/
&SYSTEM
  degauss =   1.4699723600d-02
  ecutrho =   3.2000000000d+02
  ecutwfc =   4.0000000000d+01
  ibrav = 0
  nat = 6
  nosym = .false.
  nspin = 2
  ntyp = 2
  occupations = 'smearing'
  smearing = 'cold'
  starting_magnetization(1) =   3.8461538462d-01
  starting_magnetization(2) =   1.0000000000d-01
/
&ELECTRONS
  conv_thr =   1.2000000000d-09
  electron_maxstep = 80
  mixing_beta =   4.0000000000d-01
/
ATOMIC_SPECIES
Nb     92.90638 Nb.pbesol-spn-kjpaw_psl.0.3.0.UPF
Se     78.96 se_pbesol_v1.uspp.F.UPF
ATOMIC_POSITIONS crystal
Nb           0.0000000000       0.0000000000       0.2500000000 
Nb           0.0000000000       0.0000000000       0.7500000000 
Se           0.6666666700       0.3333333300       0.6275920000 
Se           0.3333333300       0.6666666700       0.1275920000 
Se           0.6666666700       0.3333333300       0.8724080000 
Se           0.3333333300       0.6666666700       0.3724080000 
K_POINTS automatic
 11 11 3 1 1 1 
CELL_PARAMETERS angstrom
      3.4894037800       0.0000000000       0.0000000000
     -1.7447018900       3.0219123175       0.0000000000
      0.0000000000       0.0000000000      13.7569990000
